
===== New CPLEX run =====
Instance: /home/yorig/tuner/mpils-tests/instances/miplib/easy/lotsize.mps
Config: /scratch/yorig/mpils-results-grid-seconds-5-watchdog/easy/24proc/seed-5/4_lotsize_seed-5_20260504_011421/expansion/config_param_CPXPARAM_Preprocessing_CoeffReduce_1_iter_3.prm
========================

Selected objective sense:  MINIMIZE
Selected objective  name:  R1921
Selected RHS        name:  B
Selected bound      name:  BOUND
Wall watchdog: enabled factor=1 grace=1 limit=6 seconds
Version identifier: 22.1.2.0 | 2024-11-26 | 0edbb82fd
CPXPARAM_Threads                                 8
CPXPARAM_Parallel                                1
CPXPARAM_MIP_Cuts_Cliques                        -1
CPXPARAM_Preprocessing_CoeffReduce               1
CPXPARAM_MIP_Cuts_Covers                         -1
CPXPARAM_MIP_Cuts_Implied                        1
CPXPARAM_MIP_Limits_GomoryCand                   25
CPXPARAM_MIP_Cuts_Gomory                         1
CPXPARAM_MIP_Cuts_PathCut                        2
CPXPARAM_MIP_Cuts_Disjunctive                    -1
CPXPARAM_Emphasis_MIP                            1
CPXPARAM_Preprocessing_Symmetry                  2
CPXPARAM_TimeLimit                               5
Tried aggregator 1 time.
MIP Presolve eliminated 590 rows and 0 columns.
MIP Presolve added 1190 rows and 0 columns.
Reduced MIP has 2520 rows, 2985 columns, and 7765 nonzeros.
Reduced MIP has 1195 binaries, 0 generals, 0 SOSs, and 0 indicators.
Presolve time = 0.00 sec. (4.51 ticks)
Probing fixed 0 vars, tightened 5146 bounds.
Probing time = 0.01 sec. (18.21 ticks)
Tried aggregator 2 times.
MIP Presolve eliminated 5 rows and 0 columns.
MIP Presolve modified 664 coefficients.
Aggregator did 10 substitutions.
Reduced MIP has 2505 rows, 2975 columns, and 7735 nonzeros.
Reduced MIP has 1195 binaries, 0 generals, 0 SOSs, and 0 indicators.
Presolve time = 0.00 sec. (6.68 ticks)
Probing fixed 0 vars, tightened 2342 bounds.
Probing time = 0.00 sec. (6.42 ticks)
Clique table members: 190.
MIP emphasis: integer feasibility.
MIP search method: dynamic search.
Parallel mode: deterministic, using up to 8 threads.
Root relaxation solution time = 0.01 sec. (9.71 ticks)

        Nodes                                         Cuts/
   Node  Left     Objective  IInf  Best Integer    Best Bound    ItCnt     Gap

      0     0   348385.3466   472                 348385.3466      882         
      0     0   573438.4435   465                   Cuts: 726     1896         
      0     0   803349.0707   700                   Cuts: 726     2801         
*     0+    0                       1.00206e+07   803349.0707            91.98%
*     0+    0                      7923948.0000   803349.0707            89.86%
      0     0   948905.3306   700  7923948.0000     Cuts: 726     3612   88.02%
Detecting symmetries...
      0     2   948905.3306   700  7923948.0000   949069.0715     3612   88.02%
Elapsed time = 0.39 sec. (545.62 ticks, tree = 0.02 MB, solutions = 2)
    206   143   991587.5381   743  7923948.0000   949381.9153     8104   88.02%
    647   565  1047042.3196   608  7923948.0000   949381.9153    12409   88.02%
   1128  1067  1449362.0401   421  7923948.0000   949381.9153    19483   88.02%
   1490  1334  1180712.0925   483  7923948.0000   949381.9153    23746   88.02%

Performing restart 1

Repeating presolve.
Tried aggregator 1 time.
MIP Presolve modified 633 coefficients.
Reduced MIP has 2505 rows, 2975 columns, and 7735 nonzeros.
Reduced MIP has 1195 binaries, 0 generals, 0 SOSs, and 0 indicators.
Presolve time = 0.00 sec. (5.20 ticks)
Tried aggregator 1 time.
MIP Presolve modified 524 coefficients.
Reduced MIP has 2505 rows, 2975 columns, and 7735 nonzeros.
Reduced MIP has 1195 binaries, 0 generals, 0 SOSs, and 0 indicators.
Presolve time = 0.00 sec. (5.15 ticks)
Represolve time = 0.02 sec. (20.39 ticks)
*  1707+    0                      7198279.0000   966771.5674            86.57%
   1707     0  1094497.7719   765  7198279.0000     Cuts: 726    31443   84.80%
   1707     0  1190351.1133   730  7198279.0000     Cuts: 726    32313   83.46%
   1707     0  1249716.3779   742  7198279.0000     Cuts: 726    33010   82.64%
   1707     2  1249716.3779   742  7198279.0000  1249716.3779    33010   82.64%
   1717    12  1286387.8410   704  7198279.0000  1249717.6154    33467   82.64%
   1727     5  1281198.6159   712  7198279.0000  1249717.6154    33279   82.64%
   1736    26  1342679.8361   701  7198279.0000  1249717.6154    35142   82.64%
   1765    41  1334564.4487   685  7198279.0000  1249717.6154    43879   82.64%
   1975   203  1429367.8489   558  7198279.0000  1249867.2836    65088   82.64%
Elapsed time = 3.99 sec. (5517.81 ticks, tree = 0.83 MB, solutions = 3)
*  2290+  323                      1680980.0000  1266115.1834            24.68%
*  2396+  497                      1671301.0000  1266115.1834            24.24%
*  2499+  633                      1650067.0000  1266115.1834            23.27%
*  2664+  727                      1649802.0000  1266115.1834            23.26%
*  2672+  727                      1609524.0000  1266115.1834            21.34%
*  2694+  727                      1607700.0000  1266115.1834            21.25%
   2731   911  1556801.9571   289  1607700.0000  1266115.1834    93213   21.25%
*  2860+  934                      1605103.0000  1266115.1834            21.12%
*  2863+  934                      1605091.0000  1266115.1834            21.12%

Implied bound cuts applied:  16
Flow cuts applied:  586
Mixed integer rounding cuts applied:  1063
Flow path cuts applied:  128
Multi commodity flow cuts applied:  16
Lift and project cuts applied:  12
Gomory fractional cuts applied:  1

Root node processing (before b&c):
  Real time             =    0.38 sec. (543.50 ticks)
Parallel b&c, 8 threads:
  Real time             =    4.62 sec. (6435.35 ticks)
  Sync time (average)   =    0.40 sec.
  Wait time (average)   =    0.00 sec.
                          ------------
Total (root+branch&cut) =    5.00 sec. (6978.86 ticks)
Gap: 21.12%
Upper bound: 1.60509e+06
Lower bound: 1.26612e+06
Termination status: Normal
End of CPLEX run. Time: 5.00412 seconds
